c 
c G(n,p) graph
c graph gen seed     : 31930
c number of vertices : 70
c max number of edges: 2415
c edge probability   : 0.200000
c data structure     : sparse
c
c           Graph Stats
c number of vertices  : 70
c nonisolated vertices: 70
c number of edges     : 468
c edge density        : 0.193789
c max degree          : 22
c avg degree          : 13.37
c min degree          : 5
p col 70 468
e 1 70
e 1 53
e 1 52
e 1 50
e 1 46
e 1 45
e 1 43
e 1 40
e 1 38
e 1 26
e 1 18
e 1 8
e 1 3
e 2 56
e 2 55
e 2 54
e 2 49
e 2 39
e 2 34
e 2 32
e 2 30
e 2 29
e 2 21
e 2 12
e 2 11
e 2 3
e 3 70
e 3 68
e 3 51
e 3 47
e 3 27
e 3 26
e 3 25
e 3 24
e 3 14
e 3 11
e 3 8
e 4 70
e 4 69
e 4 61
e 4 56
e 4 55
e 4 51
e 4 46
e 4 44
e 4 39
e 4 32
e 4 30
e 4 24
e 5 67
e 5 66
e 5 58
e 5 55
e 5 51
e 5 41
e 5 39
e 5 18
e 5 14
e 5 13
e 5 9
e 6 70
e 6 68
e 6 58
e 6 57
e 6 56
e 6 54
e 6 35
e 6 33
e 6 27
e 6 20
e 6 9
e 7 69
e 7 68
e 7 66
e 7 62
e 7 58
e 7 54
e 7 49
e 7 47
e 7 39
e 7 38
e 7 35
e 7 34
e 7 31
e 7 28
e 7 27
e 8 65
e 8 59
e 8 53
e 8 44
e 8 28
e 8 11
e 8 9
e 9 59
e 9 52
e 9 47
e 9 44
e 9 38
e 9 36
e 9 32
e 9 30
e 9 25
e 9 21
e 9 17
e 9 15
e 9 13
e 9 10
e 10 64
e 10 61
e 10 56
e 10 53
e 10 51
e 10 49
e 10 48
e 10 47
e 10 46
e 10 44
e 10 43
e 10 39
e 10 38
e 10 32
e 10 30
e 10 28
e 10 25
e 10 22
e 10 21
e 10 18
e 10 17
e 11 65
e 11 58
e 11 53
e 11 51
e 11 49
e 11 41
e 11 28
e 11 24
e 11 23
e 11 19
e 11 14
e 12 67
e 12 65
e 12 64
e 12 59
e 12 53
e 12 47
e 12 41
e 12 40
e 12 39
e 12 35
e 12 19
e 12 17
e 12 13
e 13 69
e 13 67
e 13 62
e 13 51
e 13 49
e 13 42
e 13 40
e 13 39
e 13 29
e 13 20
e 14 64
e 14 48
e 14 46
e 14 45
e 14 41
e 14 36
e 14 35
e 14 26
e 15 70
e 15 65
e 15 54
e 15 45
e 15 41
e 15 33
e 15 28
e 15 22
e 15 21
e 15 16
e 16 56
e 16 53
e 16 52
e 16 50
e 16 41
e 16 37
e 16 31
e 16 28
e 16 24
e 16 22
e 16 21
e 17 67
e 17 59
e 17 57
e 17 50
e 17 42
e 17 33
e 17 31
e 17 30
e 17 25
e 17 20
e 17 18
e 18 64
e 18 61
e 18 55
e 18 52
e 18 51
e 18 45
e 18 38
e 18 37
e 18 36
e 18 29
e 18 23
e 19 69
e 19 57
e 19 56
e 19 54
e 19 53
e 19 51
e 19 46
e 19 38
e 19 36
e 19 32
e 19 30
e 19 26
e 20 68
e 20 66
e 20 62
e 20 60
e 20 54
e 20 52
e 20 28
e 21 67
e 21 59
e 21 57
e 21 54
e 21 53
e 21 50
e 21 49
e 21 45
e 21 43
e 21 26
e 22 69
e 22 68
e 22 54
e 22 53
e 22 50
e 22 45
e 22 41
e 22 39
e 22 37
e 22 36
e 22 35
e 22 34
e 22 33
e 22 31
e 22 28
e 22 24
e 23 69
e 23 62
e 23 61
e 23 60
e 23 56
e 23 48
e 23 46
e 23 36
e 23 31
e 23 30
e 23 26
e 23 25
e 24 65
e 24 59
e 24 42
e 24 34
e 24 25
e 25 66
e 25 60
e 25 55
e 25 54
e 25 53
e 25 46
e 25 44
e 25 40
e 26 67
e 26 48
e 26 37
e 26 29
e 27 69
e 27 58
e 27 49
e 27 41
e 27 40
e 27 39
e 27 31
e 27 30
e 27 28
e 28 58
e 28 54
e 28 50
e 28 44
e 28 43
e 28 42
e 28 40
e 28 39
e 28 37
e 28 36
e 29 67
e 29 62
e 29 49
e 29 42
e 29 39
e 30 70
e 30 69
e 30 63
e 30 61
e 30 56
e 30 52
e 30 44
e 30 42
e 30 38
e 30 37
e 30 36
e 30 34
e 30 33
e 31 53
e 31 49
e 31 41
e 31 36
e 31 33
e 32 65
e 32 60
e 32 59
e 32 54
e 32 52
e 32 40
e 32 39
e 32 37
e 33 70
e 33 63
e 33 61
e 33 59
e 33 58
e 33 55
e 33 53
e 33 52
e 33 48
e 33 46
e 33 43
e 33 34
e 34 67
e 34 66
e 34 63
e 34 58
e 34 55
e 34 53
e 34 50
e 34 49
e 34 47
e 34 42
e 35 54
e 35 44
e 35 43
e 35 38
e 35 36
e 36 63
e 36 62
e 36 58
e 36 53
e 36 52
e 36 45
e 36 44
e 36 41
e 37 56
e 37 54
e 37 52
e 37 40
e 37 39
e 37 38
e 38 67
e 38 61
e 38 53
e 38 51
e 38 45
e 38 40
e 39 70
e 39 65
e 39 54
e 39 53
e 39 52
e 39 50
e 39 45
e 40 64
e 40 61
e 40 59
e 40 58
e 40 56
e 40 48
e 40 46
e 40 42
e 40 41
e 41 60
e 41 58
e 41 57
e 41 51
e 41 43
e 42 62
e 42 57
e 42 56
e 42 55
e 42 48
e 43 67
e 43 65
e 43 56
e 43 46
e 43 44
e 44 70
e 44 64
e 44 63
e 44 60
e 44 57
e 44 52
e 45 61
e 45 59
e 45 47
e 45 46
e 46 53
e 46 50
e 47 68
e 47 57
e 47 49
e 48 65
e 48 54
e 48 53
e 49 60
e 49 56
e 50 63
e 51 67
e 51 62
e 51 60
e 51 58
e 51 57
e 52 62
e 53 64
e 53 54
e 54 70
e 54 65
e 54 63
e 54 58
e 55 64
e 55 63
e 55 59
e 56 65
e 56 64
e 56 59
e 56 58
e 57 65
e 58 65
e 59 64
e 59 62
e 59 60
e 60 68
e 60 63
e 61 70
e 62 65
e 63 69
e 64 67
e 67 68
e 69 70
